Rodando pra 1h

Optimize a model with 250129 rows, 374360 columns and 13705799 nonzeros
Coefficient statistics:
  Matrix range    [1e+00, 1e+04]
  Objective range [2e-01, 2e-01]
  Bounds range    [1e+00, 1e+04]
  RHS range       [1e+00, 1e+04]
Presolve removed 2 rows and 2 columns (presolve time = 5s) ...
Presolve removed 3 rows and 3 columns (presolve time = 16s) ...
Presolve removed 6 rows and 6 columns (presolve time = 21s) ...
Presolve removed 6 rows and 6 columns (presolve time = 28s) ...
Presolve removed 6 rows and 6 columns (presolve time = 30s) ...
Presolve removed 6 rows and 6 columns (presolve time = 35s) ...
Presolve removed 6 rows and 6 columns (presolve time = 42s) ...
Presolve removed 6 rows and 6 columns (presolve time = 45s) ...
Presolve removed 6 rows and 6 columns (presolve time = 52s) ...
Presolve removed 6 rows and 6 columns (presolve time = 57s) ...
Presolve removed 6 rows and 6 columns (presolve time = 62s) ...
Presolve removed 6 rows and 6 columns (presolve time = 67s) ...
Presolve removed 6 rows and 6 columns (presolve time = 72s) ...
Presolve removed 6 rows and 6 columns (presolve time = 76s) ...
Presolve removed 6 rows and 6 columns (presolve time = 81s) ...
Presolve removed 6 rows and 6 columns (presolve time = 87s) ...
Presolve removed 6 rows and 6 columns (presolve time = 92s) ...
Presolve removed 6 rows and 6 columns (presolve time = 96s) ...
Presolve removed 6 rows and 6 columns (presolve time = 101s) ...
Presolve removed 6 rows and 6 columns (presolve time = 106s) ...
Presolve removed 6 rows and 6 columns (presolve time = 111s) ...
Presolve removed 6 rows and 6 columns (presolve time = 116s) ...
Presolve removed 6 rows and 6 columns (presolve time = 121s) ...
Presolve removed 6 rows and 6 columns (presolve time = 126s) ...
Presolve removed 6 rows and 6 columns (presolve time = 131s) ...
Presolve removed 6 rows and 6 columns (presolve time = 142s) ...
Presolve removed 6 rows and 6 columns (presolve time = 146s) ...
Presolve removed 6 rows and 6 columns (presolve time = 165s) ...
Presolve removed 6 rows and 6 columns
Presolve time: 165.34s
Presolved: 250123 rows, 374354 columns, 13705757 nonzeros
Variable types: 249500 continuous, 124854 integer (124850 binary)
Optimize a model with 250123 rows, 374354 columns and 13705757 nonzeros
Coefficient statistics:
  Matrix range    [1e+00, 1e+04]
  Objective range [2e-01, 2e-01]
  Bounds range    [1e+00, 1e+04]
  RHS range       [1e+00, 2e+04]
Presolve removed 0 rows and 0 columns (presolve time = 6s) ...
Presolved: 250123 rows, 374354 columns, 13705757 nonzeros


Root simplex log...

Iteration    Objective       Primal Inf.    Dual Inf.      Time
       0    0.0000000e+00   1.514975e+03   0.000000e+00    203s
    1090    0.0000000e+00   0.000000e+00   0.000000e+00    204s

Root relaxation: objective 0.000000e+00, 1090 iterations, 12.65 seconds

    Nodes    |    Current Node    |     Objective Bounds      |     Work
 Expl Unexpl |  Obj  Depth IntInf | Incumbent    BestBd   Gap | It/Node Time

     0     0    0.00000    0  525          -    0.00000      -     - 3604s

Explored 0 nodes (232141 simplex iterations) in 3604.71 seconds
Thread count was 1 (of 4 available processors)

Time limit reached
Best objective -, best bound 0.000000000000e+00, gap -
Tempo: 3592.42 segundos

Error code = 10004
Var::get
